c A SAT instance generated from a 7-CNF formula that had 20 clauses and 9 variables
c SATISFIABLE :(
p cnf 9 20
8 -9 2 -7 6 -1 5 0
2 3 -9 -5 -7 6 4 0
-6 1 -2 3 -9 -4 -8 0
-9 7 -3 6 5 8 -2 0
-9 8 3 7 -1 5 -2 0
-3 8 2 4 6 9 -1 0
1 -3 8 5 -4 9 6 0
-6 -8 4 2 -9 -5 -3 0
6 4 -2 9 8 -7 -1 0
3 9 5 -7 -8 -2 6 0
3 -6 -1 8 4 9 5 0
-5 7 8 6 -2 -9 4 0
-8 9 1 7 -3 -2 -6 0
6 -9 8 -7 4 1 3 0
9 -3 2 1 5 8 4 0
3 4 -1 -6 -5 7 8 0
7 -3 2 -5 4 -1 6 0
-2 -6 -5 4 -8 -1 7 0
2 -8 7 3 -5 -4 6 0
-8 -1 3 6 -9 -4 5 0

